0	5	5	0
1	7	0	8
2	5	4	2
3	3	8	2
4	6	3	3
5	3	6	2
6	9	0	5
7              2              5              3
8            3              2              5
9            8              5              6
10            5              5              0